NAME          COPTPROB
OBJSENSE
  MIN
ROWS
 N  __OBJ___
 L  C9      
 L  C87     
 L  C112    
 L  C176    
 L  C181    
COLUMNS
    MARKER    'MARKER'                 'INTORG'
    x6        __OBJ___  341
    x6        C112      -1
    x35       __OBJ___  992
    x35       C9        -1
    x35       C176      -1
    x99       __OBJ___  296
    x99       C87       -1
    x99       C181      -1
    x124      __OBJ___  492
    x124      C9        -1
    x124      C87       -1
    x311      __OBJ___  657
    x311      C112      -1
    x311      C176      -1
    x372      __OBJ___  518
    x372      C176      -1
    x373      __OBJ___  496
    x373      C112      -1
    x373      C181      -1
    MARKER    'MARKER'                 'INTEND'
RHS
    RHS       __OBJ___  -31499
    RHS       C9        -1
    RHS       C87       -1
    RHS       C112      -1
    RHS       C176      -1
    RHS       C181      -1
BOUNDS
 UP BOUND     x6        1
 UP BOUND     x35       1
 UP BOUND     x99       1
 UP BOUND     x124      1
 UP BOUND     x311      1
 UP BOUND     x372      1
 UP BOUND     x373      1
ENDATA
